1000
750 750
1 599 309
2 599 256
3 598 924
4 598 836
5 598 424
6 598 227
7 598 125
8 597 45
9 597 626
10 597 864
11 597 975
12 596 69
13 596 59
14 595 628
15 594 500
16 592 717
17 592 155
18 591 552
19 589 723
20 589 689
21 587 153
22 587 2
23 587 225
24 586 482
25 586 797
26 586 550
27 585 342
28 584 986
29 584 148
30 583 763
31 583 629
32 583 168
33 583 783
34 582 389
35 582 701
36 582 513
37 581 275
38 581 561
39 581 200
40 580 217
41 580 759
42 580 440
43 577 40
44 577 654
45 577 731
46 577 798
47 576 877
48 576 955
49 575 760
50 575 14
51 575 247
52 575 670
53 575 679
54 574 354
55 574 169
56 574 809
57 573 902
58 573 11
59 572 515
60 572 237
61 569 218
62 568 818
63 568 198
64 568 111
65 567 735
66 567 828
67 567 64
68 567 476
69 566 393
70 565 465
71 565 922
72 565 454
73 565 227
74 564 114
75 563 765
76 561 431
77 561 175
78 560 640
79 560 884
80 559 381
81 559 321
82 559 171
83 558 744
84 558 319
85 558 710
86 556 400
87 555 129
88 554 548
89 554 105
90 554 803
91 554 960
92 554 842
93 553 834
94 552 442
95 552 837
96 552 158
97 551 688
98 551 35
99 551 731
100 551 440
101 551 477
102 550 627
103 550 800
104 550 885
105 550 849
106 549 576
107 549 291
108 548 573
109 547 703
110 546 75
111 545 172
112 545 702
113 545 322
114 545 448
115 545 752
116 543 69
117 543 182
118 542 537
119 542 790
120 542 229
121 541 457
122 541 60
123 541 779
124 541 118
125 540 243
126 540 394
127 540 342
128 540 400
129 540 199
130 539 586
131 539 179
132 539 382
133 539 259
134 538 153
135 538 471
136 538 710
137 538 317
138 537 582
139 537 848
140 537 775
141 536 54
142 536 264
143 535 928
144 534 306
145 533 846
146 533 786
147 532 115
148 532 993
149 532 794
150 532 371
151 531 716
152 531 0
153 530 504
154 530 667
155 530 683
156 528 931
157 528 691
158 528 487
159 527 403
160 527 888
161 527 73
162 525 589
163 525 696
164 524 867
165 524 838
166 524 956
167 523 45
168 523 144
169 522 450
170 522 957
171 521 893
172 521 764
173 520 585
174 519 9
175 519 739
176 519 267
177 518 460
178 518 213
179 518 371
180 518 5
181 518 440
182 518 714
183 517 652
184 516 319
185 516 765
186 516 116
187 515 485
188 515 482
189 514 460
190 513 730
191 513 855
192 512 39
193 512 781
194 512 281
195 512 376
196 510 11
197 510 523
198 509 202
199 509 546
200 507 304
201 507 131
202 507 777
203 506 911
204 505 973
205 504 593
206 502 627
207 502 314
208 501 926
209 501 410
210 500 626
211 500 496
212 499 469
213 498 780
214 498 176
215 497 816
216 497 354
217 496 884
218 496 347
219 495 668
220 495 636
221 495 374
222 494 90
223 494 493
224 494 721
225 492 148
226 492 825
227 491 131
228 490 976
229 490 146
230 489 781
231 489 64
232 488 862
233 488 577
234 488 712
235 487 844
236 487 164
237 485 203
238 485 198
239 484 28
240 484 313
241 483 604
242 483 310
243 482 971
244 482 208
245 481 134
246 481 934
247 481 813
248 480 362
249 479 324
250 478 864
251 478 340
252 478 498
253 477 444
254 476 252
255 476 813
256 475 482
257 475 219
258 475 318
259 474 367
260 473 420
261 472 626
262 472 122
263 472 252
264 471 342
265 471 716
266 470 455
267 470 540
268 470 725
269 469 654
270 468 839
271 467 29
272 467 827
273 466 139
274 466 218
275 465 128
276 465 718
277 465 122
278 464 12
279 464 537
280 464 532
281 463 52
282 463 668
283 463 268
284 462 280
285 462 928
286 462 622
287 462 513
288 460 885
289 460 288
290 458 957
291 455 636
292 455 816
293 454 487
294 453 460
295 453 457
296 452 372
297 452 764
298 452 7
299 452 473
300 451 503
301 451 265
302 450 675
303 450 210
304 448 6
305 448 23
306 447 75
307 447 860
308 446 514
309 445 934
310 444 650
311 443 56
312 443 462
313 442 384
314 442 750
315 442 419
316 441 678
317 440 712
318 439 509
319 438 271
320 438 759
321 438 642
322 436 593
323 436 240
324 435 921
325 435 123
326 434 956
327 434 385
328 433 273
329 433 22
330 432 86
331 431 85
332 429 245
333 429 431
334 428 431
335 428 339
336 427 32
337 427 546
338 425 93
339 425 291
340 425 587
341 424 338
342 424 79
343 423 639
344 422 158
345 422 333
346 422 680
347 422 419
348 422 423
349 422 361
350 421 606
351 420 957
352 418 447
353 417 536
354 416 630
355 416 285
356 416 53
357 415 600
358 415 259
359 414 528
360 414 220
361 414 306
362 412 826
363 411 309
364 411 740
365 409 40
366 408 801
367 408 731
368 408 160
369 407 507
370 407 54
371 406 273
372 405 682
373 405 439
374 405 524
375 404 232
376 403 44
377 401 275
378 401 0
379 401 304
380 400 780
381 400 366
382 399 748
383 399 784
384 397 146
385 396 96
386 396 467
387 395 630
388 395 947
389 395 323
390 395 41
391 394 218
392 392 805
393 392 498
394 391 949
395 391 671
396 390 324
397 390 5
398 390 257
399 390 56
400 389 185
401 389 903
402 388 271
403 388 558
404 386 770
405 386 857
406 385 217
407 385 97
408 385 972
409 384 72
410 384 951
411 384 371
412 382 146
413 382 546
414 381 19
415 380 908
416 380 899
417 380 765
418 378 220
419 378 948
420 377 502
421 377 769
422 374 697
423 373 488
424 373 30
425 373 805
426 373 721
427 372 149
428 372 446
429 372 12
430 371 199
431 370 641
432 369 353
433 369 353
434 368 529
435 367 544
436 367 993
437 366 389
438 366 362
439 366 77
440 363 968
441 363 61
442 363 375
443 363 54
444 363 17
445 362 347
446 362 383
447 361 881
448 360 100
449 360 668
450 360 387
451 358 367
452 358 18
453 358 384
454 358 143
455 357 194
456 356 457
457 356 649
458 356 170
459 356 139
460 355 225
461 355 817
462 355 589
463 354 428
464 354 734
465 354 437
466 354 942
467 354 531
468 352 926
469 352 654
470 352 560
471 352 26
472 351 44
473 351 361
474 351 714
475 351 233
476 351 617
477 350 784
478 350 282
479 349 826
480 349 283
481 349 174
482 348 809
483 347 521
484 347 683
485 347 112
486 347 890
487 346 882
488 345 314
489 343 111
490 343 740
491 342 633
492 341 737
493 341 380
494 340 872
495 340 615
496 340 599
497 339 97
498 339 146
499 337 407
500 337 781
501 336 661
502 335 377
503 335 156
504 335 9
505 334 755
506 334 849
507 333 143
508 333 174
509 332 865
510 332 117
511 332 304
512 331 955
513 331 858
514 331 1
515 330 617
516 329 409
517 329 574
518 329 735
519 328 622
520 327 34
521 327 679
522 326 751
523 326 324
524 323 244
525 322 142
526 321 322
527 320 321
528 319 228
529 319 785
530 318 55
531 318 853
532 318 493
533 317 341
534 317 640
535 317 898
536 317 371
537 316 961
538 315 302
539 314 668
540 313 683
541 313 574
542 312 803
543 312 764
544 311 350
545 311 819
546 310 655
547 309 96
548 309 99
549 309 190
550 309 524
551 308 144
552 307 533
553 306 435
554 305 490
555 305 260
556 304 954
557 304 594
558 304 60
559 304 641
560 303 37
561 302 869
562 302 731
563 302 799
564 299 265
565 299 335
566 299 333
567 298 222
568 297 862
569 296 894
570 295 423
571 294 827
572 293 345
573 292 180
574 291 189
575 290 486
576 290 867
577 287 942
578 286 60
579 284 400
580 283 98
581 283 657
582 283 364
583 283 150
584 283 106
585 282 676
586 282 943
587 282 704
588 282 681
589 281 50
590 281 812
591 280 251
592 280 783
593 280 535
594 279 131
595 279 752
596 279 718
597 278 127
598 278 299
599 278 849
600 278 148
601 278 493
602 277 384
603 276 68
604 275 751
605 274 123
606 274 309
607 274 433
608 273 752
609 273 517
610 273 478
611 272 85
612 272 172
613 271 5
614 270 902
615 269 695
616 269 688
617 268 166
618 267 273
619 267 415
620 267 106
621 267 239
622 266 870
623 266 309
624 266 589
625 266 155
626 265 296
627 265 187
628 265 84
629 265 275
630 264 740
631 264 778
632 264 110
633 263 317
634 262 79
635 262 100
636 262 765
637 262 942
638 262 688
639 261 968
640 261 764
641 260 688
642 260 547
643 260 820
644 260 442
645 260 416
646 260 332
647 259 48
648 258 364
649 258 388
650 257 2
651 256 949
652 256 639
653 255 397
654 255 134
655 255 974
656 253 988
657 253 585
658 253 904
659 253 915
660 252 311
661 250 113
662 250 856
663 249 185
664 249 395
665 248 613
666 247 851
667 247 613
668 246 647
669 246 262
670 245 193
671 245 892
672 245 876
673 244 100
674 244 661
675 243 205
676 241 940
677 241 367
678 239 753
679 239 475
680 239 575
681 238 145
682 238 640
683 238 73
684 238 855
685 237 558
686 237 89
687 237 206
688 236 269
689 235 632
690 235 584
691 234 417
692 233 968
693 232 274
694 232 293
695 232 337
696 232 307
697 231 541
698 231 21
699 230 591
700 230 371
701 230 138
702 230 700
703 230 507
704 230 491
705 229 277
706 229 688
707 229 487
708 228 857
709 228 933
710 227 278
711 226 620
712 226 150
713 226 24
714 226 982
715 225 298
716 224 540
717 223 235
718 223 531
719 223 96
720 222 448
721 221 400
722 220 40
723 220 613
724 220 185
725 220 837
726 219 877
727 219 516
728 219 162
729 218 265
730 218 832
731 217 248
732 217 125
733 215 278
734 215 993
735 214 76
736 214 139
737 213 117
738 211 481
739 211 594
740 211 534
741 211 698
742 210 686
743 209 840
744 209 207
745 209 44
746 209 478
747 208 22
748 208 46
749 208 832
750 208 900
751 207 619
752 207 80
753 207 121
754 207 394
755 207 618
756 206 577
757 206 326
758 205 73
759 205 871
760 204 953
761 204 878
762 203 301
763 202 199
764 199 980
765 199 647
766 197 357
767 197 15
768 197 951
769 196 641
770 195 643
771 194 267
772 194 264
773 194 60
774 193 535
775 192 495
776 191 958
777 191 470
778 190 750
779 190 858
780 190 28
781 190 921
782 187 714
783 187 817
784 187 206
785 186 896
786 186 333
787 184 411
788 184 17
789 184 165
790 184 992
791 183 228
792 183 853
793 183 115
794 183 808
795 183 489
796 183 436
797 182 843
798 182 11
799 182 715
800 181 303
801 180 767
802 180 39
803 179 499
804 179 308
805 178 939
806 178 620
807 177 591
808 177 529
809 177 99
810 176 814
811 176 390
812 175 336
813 175 495
814 175 677
815 175 432
816 174 850
817 173 635
818 173 560
819 173 642
820 172 114
821 172 872
822 171 979
823 171 989
824 170 953
825 169 551
826 168 429
827 168 971
828 168 390
829 168 110
830 168 487
831 166 212
832 165 197
833 164 332
834 163 880
835 163 959
836 162 842
837 162 76
838 161 750
839 160 902
840 159 934
841 159 149
842 157 507
843 157 698
844 157 518
845 157 279
846 157 760
847 156 391
848 156 622
849 156 254
850 156 719
851 154 218
852 154 706
853 152 962
854 152 380
855 152 223
856 152 984
857 152 239
858 151 690
859 151 695
860 150 208
861 150 373
862 150 407
863 149 607
864 149 525
865 148 567
866 148 267
867 147 310
868 146 495
869 146 943
870 146 461
871 145 890
872 145 827
873 145 700
874 145 572
875 145 987
876 144 953
877 144 327
878 144 463
879 144 739
880 144 752
881 144 454
882 143 432
883 143 881
884 142 814
885 142 144
886 141 859
887 140 951
888 137 732
889 136 566
890 136 238
891 136 579
892 136 866
893 135 959
894 135 834
895 134 826
896 133 570
897 133 816
898 132 725
899 131 967
900 131 663
901 130 141
902 130 856
903 129 886
904 127 939
905 127 835
906 127 503
907 126 723
908 126 513
909 126 457
910 125 178
911 125 134
912 125 372
913 124 371
914 124 991
915 123 41
916 123 952
917 121 285
918 120 312
919 119 649
920 119 442
921 118 427
922 118 494
923 117 686
924 116 836
925 116 453
926 116 839
927 116 835
928 115 408
929 115 636
930 115 631
931 115 245
932 114 968
933 114 253
934 113 680
935 113 660
936 113 516
937 113 855
938 112 90
939 111 161
940 111 886
941 111 450
942 111 174
943 111 981
944 110 131
945 109 776
946 108 208
947 108 801
948 108 593
949 108 997
950 108 115
951 107 421
952 106 576
953 106 544
954 106 315
955 106 155
956 104 642
957 104 350
958 103 688
959 103 742
960 103 620
961 103 601
962 101 139
963 101 486
964 101 550
965 100 851
966 100 524
967 99 459
968 98 236
969 97 638
970 96 158
971 96 910
972 96 15
973 96 346
974 95 854
975 95 535
976 93 160
977 92 373
978 91 633
979 91 899
980 91 751
981 89 960
982 89 571
983 89 881
984 89 883
985 88 664
986 87 435
987 87 447
988 87 967
989 86 965
990 86 104
991 85 336
992 84 722
993 84 184
994 83 381
995 83 941
996 80 608
997 80 908
998 79 751
999 78 748
1000 76 861
